Set parameter TSPort to value 51199
Set parameter TokenServer to value "open-license1.lanl.gov"
Set parameter TimeLimit to value 4096
Set parameter Threads to value 1
Gurobi Optimizer version 10.0.3 build v10.0.3rc0 (linux64)

CPU model: Intel(R) Xeon(R) CPU E5-2695 v4 @ 2.10GHz, instruction set [SSE2|AVX|AVX2]
Thread count: 36 physical cores, 72 logical processors, using up to 1 threads

Optimize a model with 0 rows, 2396 columns and 0 nonzeros
Model fingerprint: 0xd86366d7
Model has 11083 quadratic objective terms
Variable types: 0 continuous, 2396 integer (2396 binary)
Coefficient statistics:
  Matrix range     [0e+00, 0e+00]
  Objective range  [2e+00, 3e+01]
  QObjective range [8e+00, 8e+00]
  Bounds range     [1e+00, 1e+00]
  RHS range        [0e+00, 0e+00]
Found heuristic solution: objective 0.0000000
Found heuristic solution: objective -4068.000000
Found heuristic solution: objective -14786.00000
Found heuristic solution: objective -14838.00000
Presolve time: 0.38s
Presolved: 11083 rows, 13479 columns, 33249 nonzeros
Variable types: 0 continuous, 13479 integer (13479 binary)

Root relaxation: objective -2.074600e+04, 3448 iterations, 0.05 seconds (0.02 work units)

    Nodes    |    Current Node    |     Objective Bounds      |     Work
 Expl Unexpl |  Obj  Depth IntInf | Incumbent    BestBd   Gap | It/Node Time

     0     0 -20746.000    0 2396 -14838.000 -20746.000  39.8%     -    0s
     0     0 -19341.500    0 3098 -14838.000 -19341.500  30.4%     -    1s
     0     0 -19190.000    0 3176 -14838.000 -19190.000  29.3%     -    1s
     0     0 -19188.000    0 3177 -14838.000 -19188.000  29.3%     -    1s
     0     0 -18969.833    0 3338 -14838.000 -18969.833  27.8%     -    2s
     0     0 -18969.833    0 3309 -14838.000 -18969.833  27.8%     -    2s
     0     2 -18969.833    0 3306 -14838.000 -18969.833  27.8%     -    3s
    88    90 -18550.833   44 3703 -14838.000 -18955.833  27.8%   151    5s
   398   400 -17271.750  199 4479 -14838.000 -18955.833  27.8%  97.2   10s
   702   704 -16247.000  352 4723 -14838.000 -18955.833  27.8%  81.5   15s
   878   880 -15754.000  440 4737 -14838.000 -18955.833  27.8%  75.0   20s
  1180  1182 -15058.000  592 4144 -14838.000 -18955.833  27.8%  67.4   25s
H 1328  1314                    -14840.00000 -18955.833  27.7%  63.2   26s
  1374  1313 -18149.500   89 2396 -14840.000 -18954.833  27.7%  61.7   30s
  1378  1316 -17109.250  220 4124 -14840.000 -17995.477  21.3%  61.5   35s
  1384  1320 -15241.500  556 4641 -14840.000 -17638.214  18.9%  61.3   44s
  1385  1321 -16849.250  259 4992 -14840.000 -17555.979  18.3%  61.2   52s
  1386  1321 -16581.250  297 5093 -14840.000 -17535.442  18.2%  61.2   55s
  1391  1325 -16299.000  343 5316 -14840.000 -17527.997  18.1%  61.0   60s
  1399  1330 -15986.500  397 5861 -14840.000 -17269.286  16.4%  60.6  100s
  1400  1331 -15146.000  576 6219 -14840.000 -17202.119  15.9%  60.6  136s
  1401  1331 -16881.250  254 6476 -14840.000 -17184.264  15.8%  60.5  145s
  1402  1332 -15140.000  577 6582 -14840.000 -17179.222  15.8%  60.5  151s
  1403  1333 -16333.000  337 6709 -14840.000 -17176.810  15.7%  60.4  155s
  1405  1334 -15313.500  542 6701 -14840.000 -17175.230  15.7%  60.4  160s
  1410  1337 -16721.250  277 7102 -14840.000 -16970.353  14.4%  60.1  240s
  1411  1338 -16925.170   40 7522 -14840.000 -16925.170  14.1%  60.1  303s
  1412  1339 -14885.667  649 7599 -14840.000 -16915.486  14.0%  60.1  322s
  1413  1339 -16911.892  246 7700 -14840.000 -16911.892  14.0%  60.0  332s
  1414  1340 -16910.745  204 7809 -14840.000 -16910.745  14.0%  60.0  337s
  1415  1341 -16613.250  293 7776 -14840.000 -16910.241  14.0%  59.9  340s
  1418  1343 -14979.667  615 7936 -14840.000 -16909.706  13.9%  59.8  345s
  1422  1345 -14870.667  655 8269 -14840.000 -16740.033  12.8%  59.6  464s
  1423  1346 -16672.250  284 8815 -14840.000 -16705.872  12.6%  59.6  544s
  1424  1347 -16696.306   47 8934 -14840.000 -16696.306  12.5%  59.5  576s
  1425  1347 -15227.500  560 9011 -14840.000 -16693.735  12.5%  59.5  589s
  1426  1348 -16693.085  211 9091 -14840.000 -16693.085  12.5%  59.5  595s
  1428  1349 -16692.614  156 9154 -14840.000 -16692.614  12.5%  59.4  601s
  1431  1351 -16692.407  229 9169 -14840.000 -16692.407  12.5%  59.3  605s
  1434  1353 -14898.667  645 9349 -14840.000 -16603.238  11.9%  59.1  723s
  1435  1354 -16586.880  261 9521 -14840.000 -16586.880  11.8%  59.1  793s
  1436  1355 -14867.667  656 9703 -14840.000 -16583.501  11.7%  59.1  814s
  1437  1355 -15675.750  462 9765 -14840.000 -16582.650  11.7%  59.0  822s
  1438  1356 -16582.292  240 9857 -14840.000 -16582.292  11.7%  59.0  828s
  1439  1357 -16582.141  158 9891 -14840.000 -16582.141  11.7%  58.9  831s
  1442  1359 -16378.000  330 9938 -14840.000 -16581.983  11.7%  58.8  835s
  1444  1360 -16509.446  159 9999 -14840.000 -16509.446  11.2%  58.7  956s
  1445  1361 -16179.000  363 10342 -14840.000 -16496.685  11.2%  58.7 1012s
  1446  1361 -15052.000  595 10385 -14840.000 -16494.018  11.1%  58.6 1032s
  1447  1362 -15073.000  590 10432 -14840.000 -16493.219  11.1%  58.6 1042s
  1448  1363 -15704.250  454 10473 -14840.000 -16492.763  11.1%  58.6 1050s
  1450  1364 -15827.500  424 10524 -14840.000 -16492.542  11.1%  58.5 1056s
  1453  1366 -16492.473  105 10536 -14840.000 -16492.473  11.1%  58.4 1061s
  1454  1367 -15383.500  526 10614 -14840.000 -16438.329  10.8%  58.3 1182s
  1455  1367 -16428.105  200 10775 -14840.000 -16428.105  10.7%  58.3 1251s
  1456  1368 -16425.970  312 10774 -14840.000 -16425.970  10.7%  58.2 1271s
  1457  1369 -15671.750  466 10881 -14840.000 -16425.234  10.7%  58.2 1281s
  1458  1369 -16376.000  330 10920 -14840.000 -16425.020  10.7%  58.2 1287s
  1459  1370 -14970.333  616 10884 -14840.000 -16424.932  10.7%  58.1 1290s
  1462  1372 -16424.897   49 10928 -14840.000 -16424.897  10.7%  58.0 1295s
  1463  1373 -16390.690   76 10831 -14840.000 -16390.690  10.4%  58.0 1405s
  1464  1373 -15773.000  436 11049 -14840.000 -16382.465  10.4%  57.9 1470s
  1465  1374 -15419.500  521 11081 -14840.000 -16381.333  10.4%  57.9 1485s
  1466  1375 -16380.972  323 11092 -14840.000 -16380.972  10.4%  57.8 1492s
  1467  1375 -16380.887  186 11138 -14840.000 -16380.887  10.4%  57.8 1496s
  1468  1376 -16057.500  384 11155 -14840.000 -16380.833  10.4%  57.8 1500s
  1471  1378 -16198.000  360 11146 -14840.000 -16346.216  10.1%  57.6 1626s
  1472  1379 -16037.500  387 11249 -14840.000 -16339.894  10.1%  57.6 1685s
  1473  1379 -15711.250  452 11252 -14840.000 -16338.837  10.1%  57.6 1701s
  1474  1380 -16338.400   89 11278 -14840.000 -16338.400  10.1%  57.5 1713s
  1475  1381 -16338.306  259 11339 -14840.000 -16338.306  10.1%  57.5 1716s
  1477  1382 -15840.000  421 11334 -14840.000 -16338.264  10.1%  57.4 1720s
  1479  1383 -16311.023  129 11290 -14840.000 -16311.023  9.91%  57.3 1844s
  1480  1384 -16141.000  370 11403 -14840.000 -16305.172  9.87%  57.3 1909s
  1481  1385 -15091.000  586 11430 -14840.000 -16304.115  9.87%  57.3 1931s
  1482  1385 -16303.926  324 11477 -14840.000 -16303.926  9.86%  57.2 1937s
  1483  1386 -15466.500  511 11483 -14840.000 -16303.826  9.86%  57.2 1941s
  1484  1387 -15241.500  556 11502 -14840.000 -16303.771  9.86%  57.1 1945s
  1487  1389 -16303.732   17 11514 -14840.000 -16303.732  9.86%  57.0 1951s
  1488  1389 -16282.904   42 11410 -14840.000 -16282.904  9.72%  57.0 2062s
  1489  1390 -16277.842  312 11499 -14840.000 -16277.842  9.69%  56.9 2122s
  1490  1391 -16276.878  178 11558 -14840.000 -16276.878  9.68%  56.9 2139s
  1491  1391 -16276.589  343 11559 -14840.000 -16276.589  9.68%  56.9 2147s
  1492  1392 -15089.000  585 11587 -14840.000 -16276.477  9.68%  56.8 2151s
  1495  1394 -15748.000  444 11617 -14840.000 -16276.431  9.68%  56.7 2157s
  1496  1395 -16257.308  241 11518 -14840.000 -16257.308  9.55%  56.7 2268s
  1497  1395 -15153.000  575 11590 -14840.000 -16253.440  9.52%  56.6 2314s
  1498  1396 -16252.577  274 11618 -14840.000 -16252.577  9.52%  56.6 2331s
  1499  1397 -15986.500  397 11679 -14840.000 -16252.281  9.52%  56.6 2339s
  1500  1397 -15146.000  576 11701 -14840.000 -16252.217  9.52%  56.5 2342s
  1502  1399 -15140.000  577 11703 -14840.000 -16252.191  9.52%  56.5 2345s
  1504  1400 -16238.497  120 11562 -14840.000 -16238.497  9.42%  56.4 2440s
  1505  1401 -15313.500  542 11666 -14840.000 -16235.525  9.40%  56.3 2481s
  1506  1401 -16234.861   32 11710 -14840.000 -16234.861  9.40%  56.3 2494s
  1507  1402 -16234.715  141 11730 -14840.000 -16234.715  9.40%  56.3 2499s
  1508  1403 -15034.000  600 11726 -14840.000 -16234.628  9.40%  56.2 2503s
  1510  1404 -16234.613  277 11762 -14840.000 -16234.613  9.40%  56.2 2505s
  1511  1405 -16220.800   40 11645 -14840.000 -16220.800  9.30%  56.1 2615s
  1512  1405 -14885.667  649 11724 -14840.000 -16217.875  9.28%  56.1 2655s
  1513  1406 -16217.314  246 11776 -14840.000 -16217.314  9.28%  56.0 2668s
  1514  1407 -16217.168  204 11783 -14840.000 -16217.168  9.28%  56.0 2673s
  1515  1407 -16217.106  293 11794 -14840.000 -16217.106  9.28%  56.0 2675s
  1519  1410 -16206.897  256 11770 -14840.000 -16206.897  9.21%  55.8 2768s
  1520  1411 -15900.500  411 11807 -14840.000 -16204.323  9.19%  55.8 2815s
  1521  1411 -16203.740  213 11857 -14840.000 -16203.740  9.19%  55.8 2829s
  1522  1412 -14870.667  655 11895 -14840.000 -16203.587  9.19%  55.7 2835s
  1523  1413 -16203.529  284 11917 -14840.000 -16203.529  9.19%  55.7 2840s
  1527  1415 -16192.682  253 11785 -14840.000 -16192.682  9.12%  55.5 2943s
  1528  1416 -16190.493  156 11842 -14840.000 -16190.493  9.10%  55.5 2978s
  1529  1417 -16189.991  154 11873 -14840.000 -16189.991  9.10%  55.5 2990s
  1530  1417 -14912.667  635 11905 -14840.000 -16189.850  9.10%  55.4 2998s
  1531  1418 -16189.805  229 11914 -14840.000 -16189.805  9.10%  55.4 3002s
  1533  1419 -16189.788  326 11924 -14840.000 -16189.788  9.10%  55.3 3005s
  1535  1421 -16180.391  261 11795 -14840.000 -16180.391  9.03%  55.2 3102s
  1536  1421 -14867.667  656 11875 -14840.000 -16178.261  9.02%  55.2 3140s
  1537  1422 -15675.750  462 11907 -14840.000 -16177.753  9.01%  55.2 3156s
  1538  1423 -16177.628  240 11909 -14840.000 -16177.628  9.01%  55.1 3161s
  1539  1423 -16177.592  158 11931 -14840.000 -16177.592  9.01%  55.1 3165s
  1542  1425 -16167.868  330 11870 -14840.000 -16167.868  8.95%  55.0 3268s
  1543  1426 -16165.551   80 11924 -14840.000 -16165.551  8.93%  55.0 3312s
  1544  1427 -16165.183  159 11956 -14840.000 -16165.183  8.93%  54.9 3323s
  1545  1427 -16165.096  363 11977 -14840.000 -16165.096  8.93%  54.9 3327s
  1546  1428 -15052.000  595 11983 -14840.000 -16165.061  8.93%  54.8 3331s
  1548  1429 -15704.250  454 11978 -14840.000 -16164.719  8.93%  54.8 3340s
  1550  1431 -15827.500  424 12004 -14840.000 -16164.629  8.93%  54.7 3345s
  1560  1439 -16164.625  101 3123 -14840.000 -16164.625  8.93%  1443 3350s
  1562  1440 -16164.625   49 4732 -14840.000 -16164.625  8.93%  1441 3363s
  1563  1441 -16164.625   76 5937 -14840.000 -16164.625  8.93%  1440 3402s
  1564  1442 -15773.000  436 7961 -14840.000 -16164.625  8.93%  1439 3509s
  1565  1442 -15419.500  521 9492 -14840.000 -16164.625  8.93%  1439 3651s
  1566  1443 -16164.625  323 11128 -14840.000 -16164.625  8.93%  1438 3873s
  1567  1444 -16164.625  186 11607 -14840.000 -16164.625  8.93%  1437 4073s

Cutting planes:
  Gomory: 96
  MIR: 422
  Flow cover: 4418
  Zero half: 1172
  Mod-K: 96
  RLT: 523
  BQP: 704

Explored 1567 nodes (2823337 simplex iterations) in 4096.02 seconds (6091.56 work units)
Thread count was 1 (of 72 available processors)

Solution count 5: -14840 -14838 -14786 ... 0

Time limit reached
Best objective -1.484000000000e+04, best bound -1.616400000000e+04, gap 8.9218%

User-callback calls 16797, time in user-callback 0.08 sec

BQP_SOLUTION, 2396, 11083, -5177.000000, 4096.022834, 1, -1, 1, 1, 1, -1, 1, 1, -1, 1, 1, -1, -1, 1, -1, 1, 1, -1, 1, -1, 1, 1, -1, 1, -1, 1, 1, -1, -1, 1, 1, -1, 1, 1, -1, 1, -1, -1, 1, 1, 1, 1, -1, 1, -1, 1, 1, 1, 1, 1, 1, 1, -1, 1, -1, -1, 1, -1, 1, 1, 1, 1, -1, 1, -1, -1, -1, 1, -1, 1, 1, 1, -1, 1, -1, -1, 1, -1, 1, 1, 1, 1, -1, -1, 1, -1, -1, 1, -1, 1, 1, 1, -1, -1, 1, -1, -1, -1, -1, -1, 1, 1, 1, 1, 1, -1, -1, 1, -1, 1, 1, 1, -1, -1, 1, -1, -1, 1, -1, 1, 1, 1, -1, 1, 1, -1, -1, -1, 1, -1, 1, 1, -1, 1, 1, -1, -1, 1, 1, 1, -1, 1, -1, 1, 1, -1, -1, 1, -1, -1, -1, 1, -1, 1, 1, -1, 1, -1, 1, -1, 1, 1, -1, 1, 1, -1, -1, 1, -1, 1, 1, 1, -1, 1, 1, -1, -1, 1, 1, 1, 1, 1, -1, 1, 1, -1, 1, -1, 1, -1, -1, -1, -1, 1, -1, 1, -1, -1, 1, -1, 1, -1, 1, -1, 1, -1, 1, -1, 1, -1, 1, 1, -1, 1, -1, 1, -1, -1, 1, -1, -1, 1, -1, -1, 1, 1, 1, -1, 1, -1, 1, -1, -1, -1, 1, 1, 1, 1, -1, -1, 1, -1, -1, 1, 1, 1, -1, 1, 1, -1, -1, -1, 1, 1, -1, 1, 1, -1, -1, -1, 1, -1, -1, -1, 1, 1, 1, -1, 1, 1, -1, -1, 1, -1, 1, 1, 1, 1, 1, -1, -1, -1, 1, -1, -1, 1, 1, -1, 1, 1, 1, -1, -1, 1, -1, 1, 1, -1, 1, 1, 1, 1, -1, 1, -1, 1, 1, -1, 1, 1, -1, -1, -1, -1, 1, 1, 1, 1, -1, 1, 1, 1, -1, 1, -1, 1, 1, -1, 1, -1, -1, 1, -1, -1, 1, 1, 1, -1, 1, -1, 1, -1, -1, -1, 1, 1, -1, 1, 1, -1, -1, 1, -1, -1, 1, 1, -1, 1, 1, -1, 1, -1, 1, 1, 1, 1, -1, 1, 1, -1, 1, 1, 1, -1, 1, 1, -1, 1, 1, -1, 1, 1, -1, -1, 1, 1, 1, 1, 1, -1, 1, 1, 1, -1, 1, -1, 1, 1, 1, -1, 1, 1, -1, -1, 1, 1, 1, -1, 1, -1, 1, 1, 1, -1, 1, 1, -1, 1, 1, -1, 1, 1, 1, -1, -1, 1, -1, 1, 1, 1, -1, 1, 1, -1, 1, 1, 1, 1, 1, -1, 1, 1, 1, 1, -1, 1, -1, 1, 1, -1, 1, -1, 1, -1, 1, 1, -1, 1, 1, -1, 1, 1, 1, 1, -1, 1, -1, 1, 1, -1, -1, -1, 1, 1, 1, 1, -1, 1, 1, -1, 1, 1, 1, 1, 1, 1, -1, 1, 1, -1, -1, 1, 1, -1, 1, 1, 1, 1, 1, -1, -1, 1, 1, 1, -1, 1, 1, -1, 1, -1, 1, 1, -1, 1, 1, 1, 1, 1, -1, -1, -1, 1, -1, -1, -1, 1, 1, -1, 1, 1, -1, 1, 1, 1, -1, 1, 1, 1, 1, -1, -1, 1, 1, 1, -1, 1, 1, 1, -1, 1, -1, -1, 1, 1, -1, 1, 1, -1, -1, 1, -1, -1, 1, 1, 1, 1, 1, 1, -1, 1, -1, -1, 1, 1, 1, 1, 1, 1, 1, 1, -1, -1, -1, 1, -1, -1, 1, 1, 1, 1, -1, -1, 1, 1, 1, 1, 1, 1, -1, -1, -1, 1, 1, -1, -1, 1, 1, -1, -1, 1, -1, -1, 1, 1, 1, 1, 1, 1, 1, 1, -1, 1, 1, 1, 1, -1, 1, -1, -1, 1, -1, 1, 1, -1, 1, -1, 1, -1, -1, 1, -1, -1, 1, 1, 1, 1, 1, -1, 1, 1, -1, 1, 1, 1, 1, -1, 1, 1, -1, 1, -1, 1, 1, 1, 1, -1, -1, 1, -1, -1, 1, 1, 1, 1, -1, -1, -1, 1, 1, 1, -1, 1, 1, 1, 1, 1, -1, -1, 1, 1, 1, 1, 1, 1, 1, 1, -1, 1, -1, 1, -1, 1, 1, 1, 1, -1, -1, 1, 1, 1, 1, -1, 1, 1, 1, -1, -1, 1, 1, 1, -1, 1, 1, 1, 1, -1, 1, 1, -1, 1, -1, 1, 1, 1, 1, 1, -1, 1, 1, 1, -1, 1, 1, -1, 1, -1, 1, 1, -1, 1, 1, 1, 1, 1, -1, -1, 1, 1, 1, 1, -1, 1, 1, 1, 1, -1, 1, 1, 1, 1, -1, 1, 1, 1, 1, -1, -1, 1, 1, 1, -1, 1, 1, 1, 1, -1, -1, 1, -1, -1, -1, 1, 1, 1, 1, -1, 1, 1, -1, 1, -1, 1, 1, 1, 1, -1, -1, 1, 1, 1, -1, -1, 1, -1, 1, 1, 1, 1, -1, 1, -1, 1, 1, -1, 1, -1, 1, 1, 1, 1, 1, -1, -1, 1, -1, 1, 1, 1, -1, 1, -1, -1, -1, 1, -1, 1, 1, -1, -1, 1, -1, 1, 1, 1, -1, 1, -1, 1, 1, -1, -1, -1, 1, -1, 1, 1, 1, -1, 1, 1, -1, -1, 1, -1, 1, 1, -1, -1, 1, -1, -1, -1, 1, -1, 1, 1, 1, -1, 1, -1, -1, -1, 1, 1, 1, -1, 1, -1, 1, -1, 1, -1, 1, -1, 1, 1, 1, -1, -1, 1, -1, -1, -1, -1, 1, 1, 1, -1, -1, 1, -1, 1, 1, -1, 1, 1, 1, 1, -1, -1, -1, 1, 1, -1, 1, 1, 1, -1, 1, 1, -1, 1, 1, -1, -1, 1, 1, -1, -1, 1, -1, 1, 1, 1, -1, 1, 1, -1, 1, -1, 1, 1, 1, -1, 1, -1, -1, -1, -1, 1, 1, 1, 1, -1, 1, -1, 1, -1, -1, 1, -1, 1, 1, -1, 1, 1, -1, 1, 1, -1, 1, 1, 1, -1, 1, -1, 1, -1, -1, 1, -1, 1, 1, -1, 1, -1, -1, -1, 1, 1, 1, 1, 1, -1, 1, 1, -1, -1, 1, 1, -1, 1, 1, -1, 1, 1, -1, -1, -1, 1, 1, 1, 1, -1, -1, 1, -1, 1, 1, -1, 1, 1, 1, -1, -1, 1, -1, -1, 1, 1, -1, 1, -1, 1, -1, 1, -1, -1, 1, 1, 1, 1, 1, -1, -1, 1, -1, -1, 1, 1, -1, 1, 1, -1, -1, 1, 1, -1, 1, 1, -1, 1, -1, -1, 1, 1, -1, 1, 1, 1, -1, -1, -1, -1, 1, 1, -1, 1, 1, -1, -1, 1, -1, 1, -1, 1, -1, 1, -1, 1, 1, 1, 1, -1, 1, 1, -1, 1, -1, 1, -1, -1, 1, 1, -1, 1, 1, -1, -1, 1, 1, 1, -1, -1, 1, 1, 1, 1, -1, -1, 1, -1, -1, -1, 1, -1, 1, 1, 1, 1, 1, -1, 1, -1, 1, 1, 1, 1, 1, -1, 1, 1, -1, 1, -1, 1, -1, 1, 1, -1, 1, -1, 1, 1, 1, -1, -1, 1, 1, -1, 1, -1, 1, 1, -1, -1, -1, 1, 1, -1, 1, 1, 1, 1, 1, 1, -1, -1, -1, 1, 1, 1, -1, -1, 1, -1, 1, -1, -1, -1, 1, -1, -1, 1, -1, 1, 1, -1, -1, -1, 1, -1, -1, -1, -1, 1, -1, -1, 1, -1, 1, 1, -1, -1, -1, 1, -1, -1, -1, 1, 1, 1, 1, -1, -1, -1, 1, -1, 1, 1, 1, -1, -1, -1, -1, -1, -1, -1, 1, -1, -1, 1, -1, 1, -1, 1, 1, -1, -1, 1, 1, 1, -1, -1, 1, -1, 1, -1, 1, -1, 1, 1, -1, 1, -1, -1, 1, -1, -1, 1, 1, 1, -1, -1, -1, 1, -1, -1, 1, 1, -1, 1, 1, 1, -1, -1, 1, -1, -1, 1, -1, 1, -1, 1, 1, -1, -1, -1, 1, 1, -1, 1, 1, 1, -1, -1, 1, 1, 1, -1, 1, 1, -1, 1, -1, 1, 1, 1, -1, -1, -1, 1, 1, 1, -1, -1, 1, -1, 1, -1, 1, 1, 1, 1, -1, -1, 1, -1, -1, -1, -1, 1, 1, 1, 1, -1, 1, -1, -1, 1, -1, 1, -1, 1, 1, -1, 1, -1, 1, -1, -1, 1, 1, 1, 1, -1, -1, -1, 1, 1, -1, 1, 1, 1, 1, -1, -1, -1, -1, 1, -1, 1, 1, 1, 1, -1, -1, 1, -1, 1, -1, 1, 1, 1, 1, 1, -1, 1, -1, 1, -1, -1, 1, 1, -1, 1, -1, 1, 1, 1, -1, 1, 1, -1, 1, 1, -1, 1, 1, -1, -1, 1, -1, 1, -1, -1, -1, 1, 1, 1, -1, -1, -1, 1, 1, 1, -1, 1, 1, 1, -1, 1, -1, 1, 1, 1, -1, 1, 1, -1, 1, 1, -1, 1, -1, -1, 1, 1, -1, 1, -1, -1, -1, 1, -1, -1, 1, 1, 1, -1, 1, -1, -1, -1, 1, 1, 1, 1, 1, -1, -1, -1, 1, -1, 1, -1, 1, 1, 1, -1, 1, -1, -1, 1, -1, 1, -1, 1, -1, 1, -1, -1, -1, 1, 1, 1, 1, 1, 1, -1, -1, -1, -1, 1, -1, 1, 1, -1, 1, 1, -1, -1, -1, 1, -1, 1, -1, 1, 1, -1, -1, -1, -1, 1, -1, 1, 1, -1, 1, -1, -1, -1, -1, -1, -1, 1, 1, 1, -1, -1, 1, -1, 1, 1, -1, 1, -1, 1, 1, -1, -1, -1, 1, -1, -1, 1, -1, 1, 1, -1, -1, -1, -1, -1, 1, 1, -1, 1, -1, -1, -1, -1, -1, 1, -1, 1, -1, -1, 1, -1, 1, -1, 1, -1, -1, 1, -1, 1, 1, -1, 1, -1, -1, 1, -1, 1, -1, -1, 1, -1, 1, -1, 1, -1, -1, -1, -1, -1, -1, -1, -1, -1, -1, 1, -1, 1, -1, 1, -1, 1, -1, -1, -1, 1, -1, -1, 1, -1, 1, 1, -1, -1, -1, 1, -1, -1, -1, -1, -1, 1, -1, -1, -1, 1, -1, 1, -1, 1, 1, -1, -1, -1, 1, -1, 1, -1, 1, -1, 1, 1, 1, -1, 1, -1, -1, 1, -1, 1, 1, 1, 1, -1, -1, -1, 1, -1, -1, 1, -1, -1, -1, -1, 1, -1, 1, 1, 1, 1, -1, 1, -1, -1, -1, -1, -1, -1, -1, -1, 1, -1, -1, -1, -1, -1, -1, 1, 1, -1, 1, 1, -1, -1, -1, -1, -1, -1, 1, -1, -1, 1, -1, 1, -1, 1, -1, -1, 1, 1, -1, 1, -1, -1, -1, 1, -1, 1, 1, -1, -1, -1, 1, -1, -1, 1, -1, 1, 1, -1, -1, 1, -1, 1, -1, 1, -1, 1, 1, 1, -1, -1, 1, -1, -1, 1, -1, 1, 1, -1, 1, 1, -1, -1, -1, 1, 1, -1, 1, -1, 1, -1, 1, 1, -1, 1, 1, -1, 1, -1, -1, -1, 1, -1, -1, 1, -1, -1, 1, -1, -1, 1, 1, -1, -1, 1, 1, 1, 1, 1, -1, 1, 1, -1, -1, 1, 1, -1, 1, -1, -1, -1, 1, -1, -1, 1, 1, -1, 1, 1, -1, -1, 1, -1, -1, 1, 1, 1, 1, -1, 1, -1, 1, -1, 1, 1, 1, 1, -1, 1, -1, -1, -1, 1, 1, -1, 1, 1, 1, 1, -1, -1, 1, -1, -1, 1, 1, 1, -1, 1, -1, -1, -1, -1, 1, -1, 1, 1, 1, 1, -1, -1, 1, 1, 1, 1, 1, -1, 1, -1, -1, -1, 1, 1, 1, -1, 1, -1, 1, -1, -1, -1, -1, 1, -1, 1, 1, 1, 1, 1, -1, -1, 1, 1, -1, 1, 1, -1, 1, -1, -1, -1, -1, 1, 1, -1, 1, -1, 1, 1, -1, 1, -1, 1, 1, -1, 1, -1, 1, -1, -1, -1, -1, 1, 1, -1, 1, -1, -1, 1, -1, 1, -1, 1, 1, -1, -1, 1, -1, 1, -1, 1, -1, 1, 1, -1, -1, -1, -1, 1, -1, 1, -1, 1, 1, -1, -1, 1, 1, 1, -1, 1, -1, -1, 1, -1, 1, 1, -1, 1, -1, 1, -1, 1, -1, -1, -1, -1, 1, 1, 1, -1, -1, 1, 1, 1, -1, 1, -1, 1, 1, -1, -1, 1, -1, -1, -1, 1, -1, 1, -1, 1, -1, 1, 1, -1, -1, 1, 1, 1, 1, 1, -1, 1, -1, 1, -1, 1, -1, 1, -1, 1, -1, 1, 1, -1, -1, 1, 1, -1, 1, -1, -1, 1, 1, -1, -1, -1, -1, 1, 1, 1, -1, 1, -1, -1, 1, -1, 1, 1, 1, -1, -1, 1, -1, -1, 1, 1, 1, -1, 1, -1, -1, -1, 1, -1, -1, -1, 1, -1, 1, 1, -1, 1, -1, -1, -1, -1, 1, 1, 1, -1, -1, -1, -1, 1, -1, 1, 1, -1, 1, -1, -1, 1, -1, -1, 1, -1, 1, -1, -1, -1, -1, 1, -1, -1, 1, -1, 1, -1, 1, -1, -1, -1, -1, 1, -1, 1, 1, -1, 1, -1, -1, -1, -1, 1, -1, 1, -1, -1, 1, -1, 1, -1, -1, -1, 1, -1, 1, -1, -1, 1, -1, -1, -1, 1, 1, 1, 1, -1, -1, -1, -1, 1, -1, -1, 1, -1, -1, -1, 1, -1, 1, -1, 1, -1, 1, 1, 1, -1, -1, -1, 1, -1, -1, -1, 1, -1, -1, 1, -1, -1, 1, -1, -1, 1, 1, -1, 1, -1, 1, -1, 1, 1, -1, -1, 1, -1, -1, -1, 1, -1, -1, 1, -1, -1, 1, 1, -1, 1, -1, -1, -1, 1, -1, 1, -1, 1, -1, -1, -1, -1, 1, -1, -1, -1, 1, 1, -1, 1, -1, -1, 1, -1, 1, 1, 1, 1, -1, 1, 1, -1, 1, -1, 1, 1, 1, -1, 1, 1, -1, -1, 1, -1, 1, 1, -1, 1, -1, 1, -1, -1, 1, 1, 1, 1, 1, 1, -1, 1, -1, 1, -1, 1, 1, -1, -1, -1, -1, 1, -1, -1, 1, -1, -1, 1, 1, -1, -1, 1, 1, -1, 1, -1, -1, 1, 1, -1, 1, 1, -1, -1, -1, 1, 1, 1, -1, 1, -1, 1, -1, 1, -1, 1, -1, 1, 1, -1, -1, 1, -1, -1, 1, 1, 1, 1, 1, 1, -1, 1, 1, -1, 1, 1, 1, 1, 1, -1, -1, 1, 1, -1, -1, 1, 1, 1, 1, 1
BQP_DATA, 2396, 11083, -5177.000000, -6501.000000, -14840.000000, -16164.000000, 4096.022834, 6204, 1567
